proyfinal/src/viki/013/experimentInOfficeAgust.take6.output/6e9412c9-887c-4564-97c8-08ac0527a42a.als.out
Reading from standard input... Use '--help' for help.
============================[ Problem Statistics ]=============================
|                                                                             |
|  Number of variables:         87638                                         |
|  Number of clauses:          161767                                         |
|  Parse time:                   0.04 s                                       |
|                                                                             |
============================[ Search Statistics ]==============================
| Conflicts |          ORIGINAL         |          LEARNT          | Progress |
|           |    Vars  Clauses Literals |    Limit  Clauses Lit/Cl |          |
===============================================================================
|       100 |   61878   103534   258234 |    37962      100      6 | 29.394 % |
|       250 |   61706   103534   258234 |    41758      248     31 | 29.590 % |
|       475 |   61686   102848   256567 |    45934      401     76 | 29.613 % |
|       812 |   61686   102770   256377 |    50528      738     64 | 29.613 % |
|      1318 |   61686   102770   256377 |    55580     1244     64 | 29.613 % |
|      2077 |   61686   102770   256377 |    61138     2003     61 | 29.613 % |
|      3216 |   61662   102674   256144 |    67252     3140     69 | 29.640 % |
|      4924 |   61638   102578   255911 |    73978     4847     66 | 29.668 % |
|      7486 |   61619   102464   255654 |    81375     5636     90 | 29.689 % |
|     11330 |   61421   101672   253710 |    89513     9451    101 | 29.915 % |
===============================================================================
restarts              : 61
conflicts             : 13729          (7316 /sec)
decisions             : 42838          (0.00 % random) (22827 /sec)
propagations          : 17332253       (9235657 /sec)
conflict literals     : 1310911        (48.79 % deleted)
Memory used           : 27.08 MB
CPU time              : 1.87667 s

UNSATISFIABLE
